100 51943

 251 994
901 831
176 412
602 572
914 335
454 222
37 37
316 989
688 278
973 196
796 916
965 864
973 484
593 242
114 324
40 731
301 192
224 17
318 524
349 918
115 401
698 906
323 886
568 705
40 22
866 474
40 120
859 210
973 306
749 270
289 704
262 687
216 285
147 716
336 676
168 763
92 227
353 948
571 381
571 460
816 7
681 29
781 907
363 33
557 646
345 879
693 79
170 928
356 947
191 459
667 570
422 983
700 538
7 482
133 430
747 738
557 285
826 516
761 977
31 99
535 397
426 489
394 39
672 271
363 887
437 797
670 157
551 75
927 884
82 800
356 130
258 687
718 974
589 84
989 22
524 459
295 539
962 707
224 849
525 382
46 748
667 440
113 604
233 989
17 21
360 303
223 976
866 869
700 955
448 84
856 774
365 659
675 953
326 453
467 387
414 507
455 257
586 570
233 892
224 934
